8444
40, 39, 34, 44, 16, 46, 37, 36, 35, 49, 1, 22, 32, 45, 19, 8, 10, 9, 41, 3, 17, 18, 31, 21, 42, 7, 2, 30, 23, 50, 20, 29, 47, 26, 27, 28, 13, 14, 52, 11, 51, 12, 33, 43, 4, 25, 6, 15, 5, 48, 24, 38
